
Gurobi 11.0.2 (win64) logging started Sun Aug 18 12:43:19 2024

Set parameter LogFile to value "D:\Documenti\Scuola\Laurea magistrale unibs\laurea-unibs-mkfsp\output\2024-08-18T10_03_15.889499\logs\instance05_bucket1.log"
Set parameter TimeLimit to value 350
Set parameter MIPGap to value 0
Gurobi Optimizer version 11.0.2 build v11.0.2rc0 (win64 - Windows 10.0 (19045.2))

CPU model: Intel(R) Core(TM) i5-4670 CPU @ 3.40GHz, instruction set [SSE2|AVX|AVX2]
Thread count: 4 physical cores, 4 logical processors, using up to 4 threads

Optimize a model with 669 rows, 1730 columns and 48249 nonzeros
Model fingerprint: 0x9d34d3e9
Variable types: 0 continuous, 1730 integer (1710 binary)
Coefficient statistics:
  Matrix range     [1e+00, 1e+03]
  Objective range  [6e+02, 9e+03]
  Bounds range     [1e+00, 1e+00]
  RHS range        [1e+00, 3e+04]
Found heuristic solution: objective -0.0000000
Presolve time: 0.08s
Presolved: 669 rows, 1730 columns, 48249 nonzeros
Variable types: 0 continuous, 1730 integer (1710 binary)

Root relaxation: objective 1.192570e+05, 274 iterations, 0.01 seconds (0.00 work units)

    Nodes    |    Current Node    |     Objective Bounds      |     Work
 Expl Unexpl |  Obj  Depth IntInf | Incumbent    BestBd   Gap | It/Node Time

     0     0 119257.000    0    2   -0.00000 119257.000      -     -    0s
H    0     0                    118601.00000 119257.000  0.55%     -    0s
H    0     0                    119257.00000 119257.000  0.00%     -    0s
     0     0 119257.000    0    2 119257.000 119257.000  0.00%     -    0s

Explored 1 nodes (607 simplex iterations) in 0.12 seconds (0.10 work units)
Thread count was 4 (of 4 available processors)

Solution count 3: 119257 118601 -0 

Optimal solution found (tolerance 0.00e+00)
Best objective 1.192570000000e+05, best bound 1.192570000000e+05, gap 0.0000%
